Medium-instances_NetworkFacilityLocation/2023-03-27_20hr-25min-09sec/Nodes10_Arcs15_LocNodes8/Formulation-1Instance-4.lp
\ Model LocPrice
\ LP format - for model browsing. Use MPS format to capture full model detail.
Maximize
  - 188 x[1] - 195 x[2] - 189 x[3] - 189 x[4] - 168 x[5] - 197 x[6]
   - 179 x[7] - 173 x[9] - 4.600277300025944 Q[1] - 3.517053225115283 Q[2]
   - 4.345219399366025 Q[3] - 3.150690869329105 Q[4]
   - 3.493739585511583 Q[5] - 3.716240874858205 Q[6]
   - 3.344110932492146 Q[7] - 3.520590707284623 Q[9] + [ 2 pi[1] * Q[1]
   + 2 pi[2] * Q[2] + 2 pi[3] * Q[3] + 2 pi[4] * Q[4] + 2 pi[5] * Q[5]
   + 2 pi[6] * Q[6] + 2 pi[7] * Q[7] + 2 pi[9] * Q[9] ] / 2 
Subject To
 R0: Q[1] + Q[2] + Q[3] + Q[4] + Q[5] + Q[6] + Q[7] + Q[9] <= 700
 R1: - 133 x[1] + Q[1] <= 0
 R2: - 122 x[2] + Q[2] <= 0
 R3: - 190 x[3] + Q[3] <= 0
 R4: - 109 x[4] + Q[4] <= 0
 R5: - 146 x[5] + Q[5] <= 0
 R6: - 158 x[6] + Q[6] <= 0
 R7: - 196 x[7] + Q[7] <= 0
 R8: - 142 x[9] + Q[9] <= 0
 node[7]: - Q[7] + f[7,2] - f[8,7] = 0
 node[2]: - Q[2] + f[2,1] - f[3,2] - f[7,2] - f[9,2] - S[2] = 0
 node[3]: - Q[3] + f[3,2] - f[4,3] - f[5,3] - f[8,3] + f[3,5] - f[6,3]
   - S[3] = 0
 node[4]: - Q[4] + f[4,3] - f[5,4] + f[4,10] - S[4] = 0
 node[1]: - Q[1] - f[2,1] - f[10,1] + f[1,8] + D[1] = 0
 node[5]: - Q[5] + f[5,3] - f[6,5] - f[3,5] + f[5,4] + D[5] = 0
 node[6]: - Q[6] + f[6,5] + f[6,3] + D[6] = 0
 node[9]: - Q[9] + f[9,2] + D[9] - S[9] = 0
 node[8]: f[8,3] - f[1,8] + f[8,7] = 0
 node[10]: f[10,1] - f[4,10] + D[10] - S[10] = 0
 Cost_Flow[2,1]: - pi[1] + pi[2] + 0.4036064990867723 f[2,1] - mu_f[2,1]
   = -0.0779032783367841
 Cost_Flow[3,2]: - pi[2] + pi[3] + 0.0795273942253178 f[3,2] - mu_f[3,2]
   = -2.318995506624279
 Cost_Flow[4,3]: - pi[3] + pi[4] + 0.6857379966681512 f[4,3] - mu_f[4,3]
   = -1.2660427337534
 Cost_Flow[5,3]: - pi[3] + pi[5] + 0.9364993637741279 f[5,3] - mu_f[5,3]
   = -2.928607123705921
 Cost_Flow[6,5]: - pi[5] + pi[6] + 0.8346988680293437 f[6,5] - mu_f[6,5]
   = -2.323552322054445
 Cost_Flow[7,2]: - pi[2] + pi[7] + 1.799047816472409 f[7,2] - mu_f[7,2]
   = -2.606411979413509
 Cost_Flow[8,3]: - pi[3] + pi[8] + 0.1777487333752308 f[8,3] - mu_f[8,3]
   = -1.697979945602632
 Cost_Flow[9,2]: - pi[2] + pi[9] + 1.247931988804815 f[9,2] - mu_f[9,2]
   = -1.018542861988654
 Cost_Flow[10,1]: - pi[1] + pi[10] + 0.6974735463123494 f[10,1]
   - mu_f[10,1] = -2.563164324373784
 Cost_Flow[3,5]: pi[3] - pi[5] + 0.6127098504178472 f[3,5] - mu_f[3,5]
   = -1.371835841926432
 Cost_Flow[6,3]: - pi[3] + pi[6] + 1.277795962108325 f[6,3] - mu_f[6,3]
   = -2.572009321378208
 Cost_Flow[1,8]: pi[1] - pi[8] + 1.233169731746939 f[1,8] - mu_f[1,8]
   = -1.424960612194769
 Cost_Flow[5,4]: - pi[4] + pi[5] + 0.4104612461902866 f[5,4] - mu_f[5,4]
   = -2.805106765186
 Cost_Flow[4,10]: pi[4] - pi[10] + 1.169113964593747 f[4,10] - mu_f[4,10]
   = -2.499225967972346
 Cost_Flow[8,7]: - pi[7] + pi[8] + 1.731227271327517 f[8,7] - mu_f[8,7]
   = -1.497299003624349
 Cost_Demand[1]: pi[1] + 3.693078530037033 D[1] - mu_D[1] = 1349
 Cost_Demand[5]: pi[5] + 3.056855987345938 D[5] - mu_D[5] = 1410
 Cost_Demand[6]: pi[6] + 3.464954923584403 D[6] - mu_D[6] = 1376
 Cost_Demand[9]: pi[9] + 3.997992140643599 D[9] - mu_D[9] = 1391
 Cost_Demand[10]: pi[10] + 3.403277371495514 D[10] - mu_D[10] = 1314
 Cost_Supply[2]: - pi[2] + 0.8137095546640731 S[2] - mu_S[2]
   = -1.413160937635044
 Cost_Supply[3]: - pi[3] + 0.9978741123662942 S[3] - mu_S[3]
   = -1.871318342042068
 Cost_Supply[4]: - pi[4] + 0.4574722138966764 S[4] - mu_S[4]
   = -1.913216779379713
 Cost_Supply[9]: - pi[9] + 0.2007120166276026 S[9] - mu_S[9]
   = -1.354132008492151
 Cost_Supply[10]: - pi[10] + 0.2582307389680669 S[10] - mu_S[10]
   = -1.725215437601971
Bounds
Binaries
 x[1] x[2] x[3] x[4] x[5] x[6] x[7] x[9]
SOS
 s0:  S1 :: f[2,1]:1 mu_f[2,1]:2
 s1:  S1 :: f[3,2]:1 mu_f[3,2]:2
 s2:  S1 :: f[4,3]:1 mu_f[4,3]:2
 s3:  S1 :: f[5,3]:1 mu_f[5,3]:2
 s4:  S1 :: f[6,5]:1 mu_f[6,5]:2
 s5:  S1 :: f[7,2]:1 mu_f[7,2]:2
 s6:  S1 :: f[8,3]:1 mu_f[8,3]:2
 s7:  S1 :: f[9,2]:1 mu_f[9,2]:2
 s8:  S1 :: f[10,1]:1 mu_f[10,1]:2
 s9:  S1 :: f[3,5]:1 mu_f[3,5]:2
 s10:  S1 :: f[6,3]:1 mu_f[6,3]:2
 s11:  S1 :: f[1,8]:1 mu_f[1,8]:2
 s12:  S1 :: f[5,4]:1 mu_f[5,4]:2
 s13:  S1 :: f[4,10]:1 mu_f[4,10]:2
 s14:  S1 :: f[8,7]:1 mu_f[8,7]:2
 s15:  S1 :: D[1]:1 mu_D[1]:2
 s16:  S1 :: D[5]:1 mu_D[5]:2
 s17:  S1 :: D[6]:1 mu_D[6]:2
 s18:  S1 :: D[9]:1 mu_D[9]:2
 s19:  S1 :: D[10]:1 mu_D[10]:2
 s20:  S1 :: S[2]:1 mu_S[2]:2
 s21:  S1 :: S[3]:1 mu_S[3]:2
 s22:  S1 :: S[4]:1 mu_S[4]:2
 s23:  S1 :: S[9]:1 mu_S[9]:2
 s24:  S1 :: S[10]:1 mu_S[10]:2
End
